
Log for 'CPLEX' Clone_1 (V12.10.0.0) Mon Jul 31 16:33:27 2023

Tried aggregator 1 time.
LP Presolve eliminated 876 rows and 288 columns.
Aggregator did 987 substitutions.
Reduced LP has 1662 rows, 2044 columns, and 5930 nonzeros.
Presolve time = 0.02 sec. (5.09 ticks)
Symmetry aggregator did 949 additional substitutions.
Tried aggregator 0 times.
No LP presolve or aggregator reductions.
Presolve time = 0.00 sec. (0.45 ticks)
Parallel mode: using up to 6 threads for barrier.
Number of nonzeros in lower triangle of A*A' = 5061
Using Approximate Minimum Degree ordering
Total time for automatic ordering = 0.00 sec. (0.75 ticks)
Summary statistics for Cholesky factor:
  Threads                   = 6
  Rows in Factor            = 1205
  Integer space required    = 3199
  Total non-zeros in factor = 13603
  Total FP ops to factor    = 301625
 Itn      Primal Obj        Dual Obj  Prim Inf Upper Inf  Dual Inf Inf Ratio
   0   6.5422807e+10  -1.2182488e+13  9.61e+10  5.27e+10  4.87e+04  1.00e+00
   1   5.6925304e+10  -3.1467602e+12  5.22e+10  2.86e+10  1.27e+04  1.76e-09
   2   4.5793580e+10  -9.4137903e+11  1.34e+10  7.35e+09  3.92e+03  5.21e-09
   3   3.4387319e+10  -2.5582103e+11  1.92e+09  1.05e+09  1.16e+03  1.65e-08
   4   2.0242050e+10  -5.8302935e+10  3.28e+08  1.80e+08  3.22e+02  6.17e-08
   5   9.2293271e+09  -2.8653507e+10  1.33e+08  7.28e+07  1.63e+02  1.14e-07
 Barrier aborted.
Barrier time = 0.02 sec. (5.22 ticks)
Barrier time = 0.02 sec. (5.43 ticks)

Dual simplex solved model.


Log for 'CPLEX' Clone_1 (V12.10.0.0) Mon Jul 31 16:38:37 2023

Tried aggregator 1 time.
LP Presolve eliminated 876 rows and 288 columns.
Aggregator did 987 substitutions.
Reduced LP has 1662 rows, 2044 columns, and 5930 nonzeros.
Presolve time = 0.02 sec. (5.09 ticks)
Symmetry aggregator did 949 additional substitutions.
Tried aggregator 0 times.
No LP presolve or aggregator reductions.
Presolve time = 0.00 sec. (0.45 ticks)
Parallel mode: using up to 6 threads for barrier.
Number of nonzeros in lower triangle of A*A' = 5061
Using Approximate Minimum Degree ordering
Total time for automatic ordering = 0.00 sec. (0.75 ticks)
Summary statistics for Cholesky factor:
  Threads                   = 6
  Rows in Factor            = 1205
  Integer space required    = 3199
  Total non-zeros in factor = 13603
  Total FP ops to factor    = 301625
 Itn      Primal Obj        Dual Obj  Prim Inf Upper Inf  Dual Inf Inf Ratio
   0   6.5422807e+10  -1.2182488e+13  9.61e+10  5.27e+10  4.87e+04  1.00e+00
   1   5.6925304e+10  -3.1467602e+12  5.22e+10  2.86e+10  1.27e+04  1.76e-09
   2   4.5793580e+10  -9.4137903e+11  1.34e+10  7.35e+09  3.92e+03  5.21e-09
   3   3.4387319e+10  -2.5582103e+11  1.92e+09  1.05e+09  1.16e+03  1.65e-08
   4   2.0242050e+10  -5.8302935e+10  3.28e+08  1.80e+08  3.22e+02  6.17e-08
   5   9.2293271e+09  -2.8653507e+10  1.33e+08  7.28e+07  1.63e+02  1.14e-07
   6   5.4288141e+09  -1.3429025e+10  7.02e+07  3.85e+07  7.97e+01  2.19e-07
   7   2.9036296e+09  -5.9439641e+09  3.55e+07  1.95e+07  3.63e+01  4.60e-07
 Barrier aborted.
Barrier time = 0.02 sec. (6.21 ticks)
Barrier time = 0.02 sec. (6.42 ticks)

Dual simplex solved model.

